
Gurobi 11.0.1 (win64) logging started Wed May 15 12:32:01 2024

Set parameter LogFile to value "output/solver_log36.txt"
Gurobi Optimizer version 11.0.1 build v11.0.1rc0 (win64 - Windows 11.0 (22631.2))

CPU model: 11th Gen Intel(R) Core(TM) i7-1165G7 @ 2.80GHz, instruction set [SSE2|AVX|AVX2|AVX512]
Thread count: 4 physical cores, 8 logical processors, using up to 8 threads

Optimize a model with 2369 rows, 507 columns and 43979 nonzeros
Model fingerprint: 0xe921dede
Variable types: 248 continuous, 259 integer (259 binary)
Coefficient statistics:
  Matrix range     [4e-01, 1e+05]
  Objective range  [1e+00, 1e+02]
  Bounds range     [1e+00, 1e+00]
  RHS range        [1e-02, 1e+05]

User MIP start produced solution with objective 76898.7 (0.00s)
User MIP start produced solution with objective 76898.7 (0.01s)
Loaded user MIP start with objective 76898.7

Presolve removed 151 rows and 143 columns
Presolve time: 0.05s
Presolved: 2218 rows, 364 columns, 42623 nonzeros
Variable types: 229 continuous, 135 integer (132 binary)

Root relaxation: cutoff, 14 iterations, 0.01 seconds (0.01 work units)

    Nodes    |    Current Node    |     Objective Bounds      |     Work
 Expl Unexpl |  Obj  Depth IntInf | Incumbent    BestBd   Gap | It/Node Time

     0     0     cutoff    0      76898.6654 76898.6654  0.00%     -    0s

Explored 1 nodes (14 simplex iterations) in 0.11 seconds (0.18 work units)
Thread count was 8 (of 8 available processors)

Solution count 2: 76898.7 76898.7 

Optimal solution found (tolerance 1.00e-04)
Best objective 7.689866535466e+04, best bound 7.689866535466e+04, gap 0.0000%
